[on. 05. april 11:03:05 +0200 2023]  ./input/alternate_g_np_100/100-4-3.gcc
Set parameter Username
Academic license - for non-commercial use only - expires 2024-03-28
Set parameter TimeLimit to value 1800
Set parameter PreCrush to value 1
Set parameter LazyConstraints to value 1
Gurobi Optimizer version 10.0.1 build v10.0.1rc0 (linux64)

CPU model: AMD Ryzen 9 5950X 16-Core Processor, instruction set [SSE2|AVX|AVX2]
Thread count: 16 physical cores, 32 logical processors, using up to 32 threads

Optimize a model with 108 rows, 900 columns and 2500 nonzeros
Model fingerprint: 0x88e8509f
Variable types: 0 continuous, 900 integer (900 binary)
Coefficient statistics:
  Matrix range     [1e+00, 1e+00]
  Objective range  [1e+00, 1e+02]
  Bounds range     [1e+00, 1e+00]
  RHS range        [1e+00, 1e+00]
Presolve added 7 rows and 7 columns
Presolve time: 0.00s
Presolved: 115 rows, 907 columns, 1821 nonzeros
Variable types: 0 continuous, 907 integer (900 binary)

Root relaxation: objective 5.752000e+03, 1 iterations, 0.00 seconds (0.00 work units)

    Nodes    |    Current Node    |     Objective Bounds      |     Work
 Expl Unexpl |  Obj  Depth IntInf | Incumbent    BestBd   Gap | It/Node Time

     0     0 5752.00000    0    -          - 5752.00000      -     -    0s
     0     0 5752.00000    0    -          - 5752.00000      -     -    0s
     0     0 5752.00000    0    -          - 5752.00000      -     -    0s
     0     0 5752.00000    0    -          - 5752.00000      -     -    0s
     0     0 5752.00000    0    -          - 5752.00000      -     -    0s
     0     0 5752.00000    0    9          - 5752.00000      -     -    0s
H    0     0                    5673.0000000 5752.00000  1.39%     -    0s
H    0     0                    5752.0000000 5752.00000  0.00%     -    0s

Cutting planes:
  Lazy constraints: 28

Explored 1 nodes (9 simplex iterations) in 0.01 seconds (0.01 work units)
Thread count was 32 (of 32 available processors)

Solution count 2: 5752 5673 

Optimal solution found (tolerance 1.00e-04)
Best objective 5.752000000000e+03, best bound 5.752000000000e+03, gap 0.0000%

User-callback calls 132, time in user-callback 0.00 sec
Minimal separator inequalities added: 32
Indegree inequalities added: 0
Passed solution check
[on. 05. april 11:03:05 +0200 2023]  done

